NAME: ftv33
TYPE: ATSP
COMMENT: Asymmetric TSP (Fischetti)
DIMENSION: 5
EDGE_WEIGHT_TYPE: EXPLICIT
EDGE_WEIGHT_FORMAT: FULL_MATRIX 
EDGE_WEIGHT_SECTION
  9999 4	  6	  3	  2
  4	  9999 6	  2	  6
  6	  8	  9999 9	  5
  4	  9	  6	  9999 5
  7	  4	  3	  9 9999
RELEASE_DATES
0
5
22
14
6
EOF
